SYSTEM = water

ENCUT    = 1000
ENAUG    = 1000
NBANDS   = 60

NSW    = 400
IBRION = 2
ISIF   = 3
SMASS  = 0
POTIM  = 0.25
ISMEAR = -1
PSTRESS = 1000 

TEBEG  = 0
SIGMA  = 0.01
PREC   = HIGH
EDIFF  = 1E-8
EDIFFG = -1E-6
GGA    = PE
IALGO = 38

KGAMMA = .TRUE.
KSPACING = 0.3

LWAVE     = .FALSE.
LREAL     = .FALSE
LCHARG    = .FALSE.
LEPSILON  = .FALSE.
ADDGRID   = .FALSE.
